80 14051842
20 40 32 63 47 33 62 15 34 51 35 60 2 68 28 59 43 57 45 49 30 6 80 31 4 29 42 67 3 26 76 23 27 44 12 69 75 39 71 5 78 13 18 56 52 66 46 17 37 1 8 25 50 58 64 14 48 55 38 54 74 41 21 36 77 11 61 9 7 19 65 24 70 72 16 53 10 22 79 73 
